results/res_prop_muc/res_Cimatti_mathsat_cores/QF_UF/NEQ032_size3.smt.smt2.out

real	0m0.187s
user	0m0.128s
sys	0m0.015s
