results/res_prop_muc/res_Cimatti_mathsat_cores/QF_UF/NEQ032_size3.smt.smt2.res
unsat
( _c0
  _c1
  _c10
  _c11
  _c119
  _c12
  _c120
  _c121
  _c122
  _c123
  _c124
  _c125
  _c126
  _c127
  _c128
  _c129
  _c13
  _c130
  _c131
  _c132
  _c133
  _c134
  _c135
  _c136
  _c137
  _c138
  _c139
  _c14
  _c140
  _c15
  _c159
  _c16
  _c160
  _c161
  _c162
  _c163
  _c164
  _c165
  _c166
  _c167
  _c17
  _c18
  _c186
  _c187
  _c188
  _c189
  _c19
  _c190
  _c191
  _c192
  _c193
  _c194
  _c2
  _c20
  _c21
  _c213
  _c214
  _c215
  _c216
  _c217
  _c218
  _c219
  _c22
  _c220
  _c221
  _c224
  _c23
  _c24
  _c240
  _c241
  _c242
  _c243
  _c244
  _c245
  _c25
  _c26
  _c27
  _c28
  _c29
  _c3
  _c30
  _c31
  _c32
  _c33
  _c34
  _c35
  _c36
  _c4
  _c5
  _c6
  _c7
  _c73
  _c74
  _c75
  _c76
  _c77
  _c78
  _c79
  _c8
  _c80
  _c81
  _c82
  _c83
  _c84
  _c85
  _c86
  _c87
  _c88
  _c89
  _c9
  _c90
  _c91 )
